p cnf 275 732
1 0
2 0
3 0
4 0
5 0
6 0
7 0
8 0
-9 0
10 0
11 0
12 0
13 0
14 0
15 0
16 0
17 0
18 0
19 0
20 0
21 0
22 0
23 0
24 0
25 0
26 0
27 0
28 0
29 0
30 0
31 0
32 0
33 0
34 0
35 0
36 0
37 0
38 0
39 0
40 0
41 0
42 0
43 0
44 -45 0
-46 44 0
45 46 -44 0
1 -44 0
-1 44 0
2 -44 0
-2 44 0
-47 48 0
-49 48 0
48 -50 0
-51 48 0
48 -52 0
-53 48 0
-54 48 0
55 0
3 -48 0
-3 48 0
-49 56 0
-50 56 0
-51 56 0
-52 56 0
-53 56 0
-54 56 0
49 50 51 52 53 54 -56 0
57 -56 0
-57 56 0
-50 58 0
-51 58 0
-52 58 0
-53 58 0
-54 58 0
50 51 52 53 54 -58 0
59 -58 0
-59 58 0
-51 60 0
-52 60 0
-53 60 0
-54 60 0
51 52 53 54 -60 0
61 -60 0
-61 60 0
62 -60 0
-62 60 0
63 -60 0
-63 60 0
4 -60 0
-4 60 0
64 -65 0
64 -66 0
-67 64 0
64 -68 0
64 -69 0
-70 64 0
64 -71 0
72 0
5 -64 0
-5 64 0
-66 73 0
-67 73 0
-68 73 0
-69 73 0
-70 73 0
-71 73 0
74 0
75 -73 0
-75 73 0
-67 76 0
-68 76 0
-69 76 0
-70 76 0
-71 76 0
67 68 69 70 71 -76 0
6 -76 0
-6 76 0
-68 77 0
-69 77 0
-70 77 0
-71 77 0
68 69 70 71 -77 0
78 -77 0
-78 77 0
79 -77 0
-79 77 0
80 -77 0
-80 77 0
81 -77 0
-81 77 0
82 -83 0
82 -84 0
-85 82 0
83 84 85 -82 0
7 -82 0
-7 82 0
-84 86 0
-85 86 0
84 85 -86 0
8 -86 0
-8 86 0
9 -85 0
-9 85 0
87 -88 0
-89 87 0
-90 87 0
-91 87 0
87 -92 0
88 89 90 91 92 -87 0
10 -87 0
-10 87 0
-89 93 0
-90 93 0
-91 93 0
-92 93 0
89 90 91 92 -93 0
94 -93 0
-94 93 0
-90 95 0
-91 95 0
-92 95 0
90 91 92 -95 0
96 -95 0
-96 95 0
11 -95 0
-11 95 0
97 -95 0
-97 95 0
-45 98 0
-46 98 0
-99 98 0
-100 98 0
-101 98 0
98 -102 0
45 46 99 100 101 102 -98 0
12 -98 0
-12 98 0
-45 103 0
-46 103 0
-100 103 0
-101 103 0
-102 103 0
45 46 100 101 102 -103 0
104 -103 0
-104 103 0
-45 105 0
-46 105 0
-101 105 0
-102 105 0
45 46 101 102 -105 0
13 -105 0
-13 105 0
-45 106 0
-46 106 0
-102 106 0
45 46 102 -106 0
14 -106 0
-14 106 0
-90 107 0
-91 107 0
-92 107 0
-108 107 0
-109 107 0
-110 107 0
107 -111 0
112 0
15 -107 0
-15 107 0
-90 113 0
-91 113 0
-92 113 0
-109 113 0
-110 113 0
-111 113 0
114 0
115 -113 0
-115 113 0
-90 116 0
-91 116 0
-92 116 0
-110 116 0
-111 116 0
90 91 92 110 111 -116 0
117 -116 0
-117 116 0
-90 118 0
-91 118 0
-92 118 0
-111 118 0
90 91 92 111 -118 0
119 -118 0
-119 118 0
-45 120 0
-46 120 0
120 -121 0
-122 120 0
-123 120 0
45 46 121 122 123 -120 0
16 -120 0
-16 120 0
-45 124 0
-46 124 0
-122 124 0
-123 124 0
45 46 122 123 -124 0
17 -124 0
-17 124 0
-45 125 0
-46 125 0
-123 125 0
45 46 123 -125 0
126 -125 0
-126 125 0
127 -128 0
-129 127 0
127 -130 0
128 129 130 -127 0
18 -127 0
-18 127 0
-129 131 0
-130 131 0
129 130 -131 0
19 -131 0
-19 131 0
132 -130 0
-132 130 0
-68 133 0
-69 133 0
-70 133 0
-71 133 0
133 -134 0
133 -135 0
136 0
20 -133 0
-20 133 0
-68 137 0
-69 137 0
-70 137 0
-71 137 0
-135 137 0
68 69 70 71 135 -137 0
138 -137 0
-138 137 0
-68 139 0
-69 139 0
-70 139 0
-71 139 0
-135 139 0
139 -140 0
-141 139 0
142 0
21 -139 0
-21 139 0
-68 143 0
-69 143 0
-70 143 0
-71 143 0
-135 143 0
-141 143 0
144 0
22 -143 0
-22 143 0
-145 146 0
-147 146 0
-148 146 0
146 -149 0
146 -150 0
146 -151 0
-152 146 0
-153 146 0
154 0
23 -146 0
-23 146 0
-147 155 0
-148 155 0
-149 155 0
-150 155 0
-151 155 0
-152 155 0
-153 155 0
156 0
157 -155 0
-157 155 0
-148 158 0
-149 158 0
-150 158 0
-151 158 0
-152 158 0
-153 158 0
159 0
160 -158 0
-160 158 0
-149 161 0
-150 161 0
-151 161 0
-152 161 0
-153 161 0
149 150 151 152 153 -161 0
162 -161 0
-162 161 0
-150 163 0
-151 163 0
-152 163 0
-153 163 0
150 151 152 153 -163 0
164 -163 0
-164 163 0
165 -163 0
-165 163 0
166 -163 0
-166 163 0
167 -163 0
-167 163 0
168 -169 0
168 -170 0
-171 168 0
-172 168 0
168 -173 0
168 -174 0
175 0
24 -168 0
-24 168 0
-170 176 0
-171 176 0
-172 176 0
-173 176 0
-174 176 0
170 171 172 173 174 -176 0
25 -176 0
-25 176 0
26 -176 0
-26 176 0
177 -176 0
-177 176 0
178 -176 0
-178 176 0
179 -176 0
-179 176 0
-50 180 0
-51 180 0
-52 180 0
-53 180 0
-54 180 0
180 -181 0
180 -182 0
183 0
27 -180 0
-27 180 0
-50 184 0
-51 184 0
-52 184 0
-53 184 0
-54 184 0
-182 184 0
50 51 52 53 54 182 -184 0
185 -184 0
-185 184 0
-84 186 0
-85 186 0
186 -187 0
-188 186 0
-189 186 0
84 85 187 188 189 -186 0
28 -186 0
-28 186 0
-84 190 0
-85 190 0
-188 190 0
-189 190 0
84 85 188 189 -190 0
191 -190 0
-191 190 0
-84 192 0
-85 192 0
-189 192 0
84 85 189 -192 0
29 -192 0
-29 192 0
-170 193 0
-171 193 0
-172 193 0
-173 193 0
-174 193 0
193 -194 0
-195 193 0
196 0
30 -193 0
-30 193 0
-170 197 0
-171 197 0
-172 197 0
-173 197 0
-174 197 0
-195 197 0
198 0
199 -197 0
-199 197 0
-45 200 0
-46 200 0
-123 200 0
200 -201 0
45 46 123 201 -200 0
31 -200 0
-31 200 0
-90 202 0
-91 202 0
-92 202 0
202 -203 0
-204 202 0
202 -205 0
206 0
32 -202 0
-32 202 0
-90 207 0
-91 207 0
-92 207 0
-204 207 0
-205 207 0
90 91 92 204 205 -207 0
208 -207 0
-208 207 0
-90 209 0
-91 209 0
-92 209 0
-205 209 0
90 91 92 205 -209 0
210 -209 0
-210 209 0
-84 211 0
-85 211 0
-189 211 0
-212 211 0
211 -213 0
84 85 189 212 213 -211 0
33 -211 0
-33 211 0
-84 214 0
-85 214 0
-189 214 0
-213 214 0
84 85 189 213 -214 0
215 -214 0
-215 214 0
-68 216 0
-69 216 0
-70 216 0
-71 216 0
-217 216 0
68 69 70 71 217 -216 0
34 -216 0
-34 216 0
-150 218 0
-151 218 0
-152 218 0
-153 218 0
-219 218 0
218 -220 0
221 0
35 -218 0
-35 218 0
-150 222 0
-151 222 0
-152 222 0
-153 222 0
-220 222 0
150 151 152 153 220 -222 0
223 -222 0
-223 222 0
-45 224 0
-46 224 0
-121 224 0
-122 224 0
-123 224 0
224 -225 0
45 46 121 122 123 225 -224 0
36 -224 0
-36 224 0
-150 226 0
-151 226 0
-152 226 0
-153 226 0
-220 226 0
-227 226 0
-228 226 0
226 -229 0
230 0
37 -226 0
-37 226 0
-150 231 0
-151 231 0
-152 231 0
-153 231 0
-220 231 0
-228 231 0
-229 231 0
232 0
233 -231 0
-233 231 0
-150 234 0
-151 234 0
-152 234 0
-153 234 0
-220 234 0
-229 234 0
235 0
236 -234 0
-236 234 0
-150 237 0
-151 237 0
-152 237 0
-153 237 0
-238 237 0
150 151 152 153 238 -237 0
38 -237 0
-38 237 0
-45 239 0
-46 239 0
-102 239 0
239 -240 0
45 46 102 240 -239 0
39 -239 0
-39 239 0
-83 241 0
-84 241 0
-85 241 0
-242 241 0
-243 241 0
83 84 85 242 243 -241 0
40 -241 0
-40 241 0
-83 244 0
-84 244 0
-85 244 0
-243 244 0
83 84 85 243 -244 0
245 -244 0
-245 244 0
-90 246 0
-91 246 0
-92 246 0
-204 246 0
-205 246 0
-247 246 0
248 0
41 -246 0
-41 246 0
-148 249 0
-149 249 0
-150 249 0
-151 249 0
-152 249 0
-153 249 0
-250 249 0
249 -251 0
252 0
42 -249 0
-42 249 0
-148 253 0
-149 253 0
-150 253 0
-151 253 0
-152 253 0
-153 253 0
-251 253 0
254 0
255 -253 0
-255 253 0
-149 256 0
-150 256 0
-151 256 0
-152 256 0
-153 256 0
-257 256 0
-258 256 0
256 -259 0
260 0
43 -256 0
-43 256 0
-149 261 0
-150 261 0
-151 261 0
-152 261 0
-153 261 0
-258 261 0
-259 261 0
262 0
263 -261 0
-263 261 0
-149 264 0
-150 264 0
-151 264 0
-152 264 0
-153 264 0
-259 264 0
265 0
266 -264 0
-266 264 0
45 -267 0
-267 -46 0
-267 -47 0
-267 -49 0
50 -267 0
-267 -51 0
52 -267 0
-267 -53 0
-267 -54 0
65 -267 0
66 -267 0
-267 -67 0
68 -267 0
69 -267 0
-267 -70 0
71 -267 0
83 -267 0
84 -267 0
-267 -85 0
88 -267 0
-267 -89 0
-267 -90 0
-267 -91 0
92 -267 0
-267 -99 0
-267 -100 0
-267 -101 0
102 -267 0
-267 -108 0
-267 -109 0
-267 -110 0
111 -267 0
121 -267 0
-267 -122 0
-267 -123 0
128 -267 0
-267 -129 0
130 -267 0
134 -267 0
135 -267 0
140 -267 0
-267 -141 0
-267 -145 0
-267 -147 0
-267 -148 0
149 -267 0
150 -267 0
151 -267 0
-267 -152 0
-267 -153 0
169 -267 0
170 -267 0
-267 -171 0
-267 -172 0
173 -267 0
174 -267 0
181 -267 0
182 -267 0
187 -267 0
-267 -188 0
-267 -189 0
194 -267 0
-267 -195 0
201 -267 0
203 -267 0
-267 -204 0
205 -267 0
-267 -212 0
213 -267 0
-267 -217 0
-267 -219 0
220 -267 0
225 -267 0
-267 -227 0
-267 -228 0
229 -267 0
-267 -238 0
240 -267 0
-267 -242 0
-267 -243 0
-267 -247 0
-267 -250 0
251 -267 0
-267 -257 0
-267 -258 0
259 -267 0
267 0
-268 0
-269 0
-270 0
-271 0
-272 0
-273 0
-274 0
-275 0
